
<<< setup


<<< generate

CPXPARAM_Simplex_Tolerances_Optimality           0.001
CPXPARAM_Simplex_Tolerances_Feasibility          0.001
CPXPARAM_TimeLimit                               3600
CPXPARAM_Threads                                 8
CPXPARAM_MIP_Tolerances_AbsMIPGap                0.001
CPXPARAM_MIP_Tolerances_MIPGap                   0.001
CPXPARAM_MIP_Tolerances_Integrality              0.001
CPXPARAM_MIP_Display                             4
CPXPARAM_MIP_PolishAfter_Solutions               1
Tried aggregator 2 times.
MIQCP Presolve eliminated 2 rows and 2 columns.
Aggregator did 1 substitutions.
Reduced MIQCP has 70 rows, 198 columns, and 331 nonzeros.
Reduced MIQCP has 0 binaries, 32 generals, 0 SOSs, and 0 indicators.
Reduced MIQCP has 3 quadratic constraints.
Presolve time = 0.00 sec. (0.14 ticks)
MIP emphasis: balance optimality and feasibility.
MIP search method: dynamic search.
Parallel mode: deterministic, using up to 8 threads.
Dual infeasible due to empty column 'x(2)'.
Presolve time = 0.00 sec. (0.03 ticks)
Tried aggregator 1 time.
LP Presolve eliminated 66 rows and 66 columns.
Aggregator did 2 substitutions.
Reduced LP has 2 rows, 130 columns, and 130 nonzeros.
Presolve time = 0.00 sec. (0.06 ticks)
Initializing dual steep norms . . .

Iteration log . . .
Iteration:     1    Scaled infeas =             0.000000
Root relaxation solution time = 0.00 sec. (0.17 ticks)

        Nodes                                         Cuts/
   Node  Left     Objective  IInf  Best Integer    Best Bound    ItCnt     Gap

      0     0    17917.1472    32                  17917.1472       17         
      0     2   -44792.0018    32                  17917.1472       34         
Elapsed time = 0.28 sec. (81.23 ticks, tree = 0.01 MB, solutions = 0)
*     7+    3                        -4470.1574    17917.1472          -500.82%
Found incumbent of value -4470.157401 after 0.33 sec. (147.30 ticks)

Root node processing (before b&c):
  Real time             =    0.27 sec. (72.87 ticks)
Parallel b&c, 8 threads:
  Real time             =    0.08 sec. (116.02 ticks)
  Sync time (average)   =    0.02 sec.
  Wait time (average)   =    0.00 sec.
                          ------------
Total (root+branch&cut) =    0.34 sec. (188.89 ticks)

<<< solve


OBJECTIVE: -4470.157
X*: [9996.8 10004 9996.8 10004 9996.8 10004 9996.8 10004 9996.8 10004 9996.8 10004
     9996.8 10004 9996.8 10004 9996.8 10004 9996.8 10004 9996.8 10004 9996.8
     10004 9996.8 10004 9996.8 10004 9996.8 10004 9996.8 10004] Z*: [9983 10004 9996 10004 9996 10004 9997 10004 9996 10004 9996 10004 9996 10004
     9996 10004 9996 10004 9996 10004 9996 10004 9996 10004 9996 10004 9996
     10004 9996 10004 9996 10004]
f*:7151.705258117

<<< post process


<<< done

